17	4	3
13	11	11	13	16	26	36	
0	0	0	0	0	1	3	6	5	6	1	3	2	3	4
9	2	0	0	0	8	2	4	10	4	6	2	6	17
3	0	0	2	0	10	10	2	1	1	5	2	5	6
2	0	0	0	4	5	5	1	7	5	9	1	17
4	10	0	0	0	5	7	5	3	8	5	3	7	9	14
250	0	0	1	0	4	9	8	9	3	3	1	17
50	0	0	4	0	9	1	5	3	10	8	3	8	10	11
175	0	9	0	0	8	9	7	10	10	8	2	16	17
150	0	0	4	0	4	4	3	5	10	8	2	11	17
225	8	0	0	0	3	5	4	7	7	1	2	12	17
50	8	0	0	0	2	10	9	9	8	1	2	13	17
125	3	0	0	0	2	7	2	6	9	1	1	17
6	0	0	5	0	4	6	10	1	5	9	2	16	17
5	0	0	3	0	9	9	2	1	4	2	2	15	17
9	0	0	6	0	8	6	6	2	3	3	2	16	17
9	0	0	10	0	3	5	3	1	4	10	1	17
0	0	0	0	0	2	5	7	3	1	5	0
